p wcnf 125 62 63 
1 -24 -87 0 
1 98 6 0 
1 -91 15 0 
1 89 -9 0 
1 109 -123 0 
1 -53 5 0 
1 100 -65 0 
1 92 -68 0 
1 57 61 0 
1 -92 44 0 
1 12 2 0 
1 69 17 0 
1 78 69 0 
1 108 52 0 
1 12 56 0 
1 -14 -95 0 
1 -43 51 0 
1 111 -120 0 
1 -72 31 0 
1 117 13 0 
1 -2 -20 0 
1 -15 115 0 
1 66 -77 0 
1 95 -119 0 
1 123 113 0 
1 124 67 0 
1 -13 -43 0 
1 35 -55 0 
1 42 -47 0 
1 105 -55 0 
1 -94 103 0 
1 -71 -64 0 
1 12 58 0 
1 90 56 0 
1 -81 26 0 
1 -73 58 0 
1 -79 31 0 
1 -39 -107 0 
1 -113 -85 0 
1 -17 122 0 
1 -49 -94 0 
1 -33 124 0 
1 -13 -80 0 
1 7 -90 0 
1 32 -36 0 
1 -123 -79 0 
1 -93 45 0 
1 113 34 0 
1 49 -41 0 
1 26 3 0 
1 -25 -122 0 
1 -37 41 0 
1 -114 -67 0 
1 -84 -23 0 
1 84 -28 0 
1 97 108 0 
1 -95 -71 0 
1 -103 30 0 
1 26 108 0 
1 27 -17 0 
1 75 -82 0 
1 -123 9 0 
